outputs/case_460.model.txt
loan_secured_by_approved_securities = False
improvement_plan_submitted = True
authority_specified_amount = 1000000
real_estate_investment_use_and_income = False
net_worth_ratio = -10
other_similar_loans_conditions = True
improvement_plan_executed = True
net_worth = -1000000
total_loan_amount = 4000000
loan_guaranteed_by_bank_or_authority = False
loan_secured_by_life_insurance_policy = False
single_loan_amount = 600000
related_party_loan_amount = 2000000
board_meeting_approval_ratio = 3/5
capital_fund = 10000000
social_housing_rental = False
related_party_loan_conditions = False
investment_in_company_securities = 2000000
internal_control_and_audit_established = False
internal_handling_procedures_established = False
capital_adequacy_ratio = 40
self_use_real_estate_investment = 9000000
loan_secured_by_company_securities = False
loan_secured_by_movable_or_immovable = False
real_estate_investment_excluding_self_use = 4000000
company_owner_equity = 10000000
related_party_loan_fully_secured = False
owner_equity = 8000000
board_meeting_attendance_ratio = 1/2
improvement_plan_submitted_and_executed = True
real_estate_investment_limit = 0
business_start_permit = True
deposit_guarantee = True
registered_according_law = True
capital_level = 4
foreign_permit_granted = False
foreign_registered_according_law = False
foreign_deposit_guarantee = False
foreign_business_license_obtained = False
foreign_business_start_permit = False
total_loan_amount_limit = 0
loan_types_limit = 0
business_license_obtained = True
penalty = False
permit_granted = True
single_loan_amount_limit = 0
combined_investment_and_loan_limit = 0